28 97
41 41
17 58
9 61
28 55
79 43
47 4
78 24
43 53
34 49
12 26
4 58
48 69
48 110
51 62
33 18
1 181
14 32
13 62
8 5
25 54
51 98
30 130
59 45
22 154
86 16
4 108
38 87
23 138
17 191
14 194
91 9
21 15
2 176
34 141
91 37
43 136
13 31
1 43
3 104
5 72
34 104
97 11
64 77
3 112
8 98
8 177
18 46
40 138
55 17
1 52
25 27
75 40
77 30
27 119
9 30
25 77
24 48
24 128
42 66
78 19
58 54
51 29
90 1
22 50
30 146
65 23
49 61
1 88
22 10
66 14
25 33
32 13
60 66
14 56
12 72
50 47
98 56
27 60
20 174
18 187
13 108
10 4
18 149
32 8
66 49
53 60
80 45
8 85
62 22
9 6
7 86
43 38
31 88
45 96
4 99
25 11
16 81
1 63
25 162
